c Reduced graph for 3-FullIns_3 generated by Cyril Grelier
p edge 11 35
e 1 2
e 1 3
e 1 4
e 1 5
e 1 7
e 1 8
e 1 9
e 1 10
e 2 3
e 2 4
e 2 5
e 2 6
e 2 8
e 2 9
e 2 10
e 3 4
e 3 5
e 3 6
e 3 7
e 3 9
e 3 10
e 4 5
e 4 6
e 4 7
e 4 8
e 4 10
e 5 6
e 5 7
e 5 8
e 5 9
e 6 11
e 7 11
e 8 11
e 9 11
e 10 11
